cases/pglib-opf/pglib_opf_case30_as.m
ipopt
ACP
[info | PowerModels]: extending matpower format with data: areas 1x3
[warn | PowerModels]: no active generators found at bus 23, updating to bus type from 2 to 1
[warn | PowerModels]: no active generators found at bus 22, updating to bus type from 2 to 1
[warn | PowerModels]: active generators found at bus 11, updating to bus type from 1 to 2
[warn | PowerModels]: active generators found at bus 5, updating to bus type from 1 to 2
[warn | PowerModels]: no active generators found at bus 27, updating to bus type from 2 to 1
[warn | PowerModels]: active generators found at bus 8, updating to bus type from 1 to 2

******************************************************************************
This program contains Ipopt, a library for large-scale nonlinear optimization.
 Ipopt is released as open source code under the Eclipse Public License (EPL).
         For more information visit http://projects.coin-or.org/Ipopt
******************************************************************************

This is Ipopt version 3.13.2, running with linear solver mumps.
NOTE: Other linear solvers might be more efficient (see Ipopt documentation).

Number of nonzeros in equality constraint Jacobian...:      999
Number of nonzeros in inequality constraint Jacobian.:      328
Number of nonzeros in Lagrangian Hessian.............:     1812

Total number of variables............................:      236
                     variables with only lower bounds:        0
                variables with lower and upper bounds:      206
                     variables with only upper bounds:        0
Total number of equality constraints.................:      225
Total number of inequality constraints...............:      164
        inequality constraints with only lower bounds:       41
   inequality constraints with lower and upper bounds:        0
        inequality constraints with only upper bounds:      123

iter    objective    inf_pr   inf_du lg(mu)  ||d||  lg(rg) alpha_du alpha_pr  ls
   0  2.9330612e+02 7.89e-01 6.98e+00  -1.0 0.00e+00    -  0.00e+00 0.00e+00   0
   1  7.3680988e+02 1.06e-01 4.80e+01  -1.0 7.66e-01    -  1.76e-02 8.65e-01h  1
   2  7.6515454e+02 5.53e-02 2.51e+01  -1.0 9.70e-01    -  7.06e-01 4.79e-01h  1
   3  8.0390995e+02 9.81e-03 3.83e+00  -1.0 6.95e-01    -  1.00e+00 1.00e+00h  1
   4  8.0419681e+02 2.85e-04 1.48e-01  -1.0 1.06e-01    -  1.00e+00 1.00e+00h  1
   5  8.0355508e+02 1.29e-04 2.65e-02  -1.7 7.56e-02    -  1.00e+00 1.00e+00f  1
   6  8.0322260e+02 1.45e-04 2.45e-02  -2.5 4.50e-02    -  9.81e-01 1.00e+00f  1
   7  8.0312215e+02 2.25e-04 7.52e-02  -3.8 4.76e-02    -  8.87e-01 9.26e-01h  1
   8  8.0312831e+02 3.92e-05 5.43e-04  -3.8 1.60e-02    -  1.00e+00 1.00e+00h  1
   9  8.0312738e+02 1.51e-06 2.40e-04  -5.7 4.36e-03    -  1.00e+00 9.98e-01h  1
iter    objective    inf_pr   inf_du lg(mu)  ||d||  lg(rg) alpha_du alpha_pr  ls
  10  8.0312733e+02 3.89e-09 4.27e-07  -5.7 3.29e-04    -  1.00e+00 1.00e+00f  1
  11  8.0312731e+02 7.14e-11 1.82e-09  -8.6 2.73e-05    -  1.00e+00 1.00e+00h  1

Number of Iterations....: 11

                                   (scaled)                 (unscaled)
Objective...............:   2.4711609550316885e+02    8.0312731038529876e+02
Dual infeasibility......:   1.8153194503156556e-09    5.8997882135258806e-09
Constraint violation....:   7.1400080292605139e-11    7.1400080292605139e-11
Complementarity.........:   3.8105847342503936e-09    1.2384400386313778e-08
Overall NLP error.......:   3.8105847342503936e-09    1.2384400386313778e-08


Number of objective function evaluations             = 12
Number of objective gradient evaluations             = 12
Number of equality constraint evaluations            = 12
Number of inequality constraint evaluations          = 12
Number of equality constraint Jacobian evaluations   = 12
Number of inequality constraint Jacobian evaluations = 12
Number of Lagrangian Hessian evaluations             = 11
Total CPU secs in IPOPT (w/o function evaluations)   =      1.231
Total CPU secs in NLP function evaluations           =      2.327

EXIT: Optimal Solution Found.
Time to Solution........:4.302472114562988
